p tw 73 83
1 2
2 13
3 4
4 5
5 6
6 7
7 8
8 9
9 10
10 11
11 12
12 14
12 27
13 24
14 15
15 16
16 17
17 18
17 20
18 19
18 20
19 20
19 23
20 21
21 22
22 70
23 25
24 35
24 46
25 26
26 70
27 28
28 29
29 30
29 34
30 31
31 32
32 33
33 70
34 36
35 70
36 37
36 41
37 38
38 39
39 40
40 70
41 42
42 43
43 44
44 45
45 47
46 57
47 48
47 50
48 49
49 54
50 51
51 52
52 53
53 54
54 55
55 56
56 58
57 68
58 59
59 60
59 66
60 61
60 63
61 62
62 63
62 66
63 64
64 65
65 70
66 67
67 69
68 72
69 70
70 71
72 73
73 3
